c FILE: myciel5.col
c SOURCE: Michael Trick (trick@cmu.edu)
c DESCRIPTION: Graph based on Mycielski transformation. 
c              Triangle free (clique number 2) but increasing
c              coloring number
p edge 47 236
e 1 2
e 1 4
e 1 7
e 1 9
e 1 13
e 1 15
e 1 18
e 1 20
e 1 25
e 1 27
e 1 30
e 1 32
e 1 36
e 1 38
e 1 41
e 1 43
e 2 3
e 2 6
e 2 8
e 2 12
e 2 14
e 2 17
e 2 19
e 2 24
e 2 26
e 2 29
e 2 31
e 2 35
e 2 37
e 2 40
e 2 42
e 3 5
e 3 7
e 3 10
e 3 13
e 3 16
e 3 18
e 3 21
e 3 25
e 3 28
e 3 30
e 3 33
e 3 36
e 3 39
e 3 41
e 3 44
e 4 5
e 4 6
e 4 10
e 4 12
e 4 16
e 4 17
e 4 21
e 4 24
e 4 28
e 4 29
e 4 33
e 4 35
e 4 39
e 4 40
e 4 44
e 5 8
e 5 9
e 5 14
e 5 15
e 5 19
e 5 20
e 5 26
e 5 27
e 5 31
e 5 32
e 5 37
e 5 38
e 5 42
e 5 43
e 6 11
e 6 13
e 6 15
e 6 22
e 6 25
e 6 27
e 6 34
e 6 36
e 6 38
e 6 45
e 7 11
e 7 12
e 7 14
e 7 22
e 7 24
e 7 26
e 7 34
e 7 35
e 7 37
e 7 45
e 8 11
e 8 13
e 8 16
e 8 22
e 8 25
e 8 28
e 8 34
e 8 36
e 8 39
e 8 45
e 9 11
e 9 12
e 9 16
e 9 22
e 9 24
e 9 28
e 9 34
e 9 35
e 9 39
e 9 45
e 10 11
e 10 14
e 10 15
e 10 22
e 10 26
e 10 27
e 10 34
e 10 37
e 10 38
e 10 45
e 11 17
e 11 18
e 11 19
e 11 20
e 11 21
e 11 29
e 11 30
e 11 31
e 11 32
e 11 33
e 11 40
e 11 41
e 11 42
e 11 43
e 11 44
e 12 23
e 12 25
e 12 27
e 12 30
e 12 32
e 12 46
e 13 23
e 13 24
e 13 26
e 13 29
e 13 31
e 13 46
e 14 23
e 14 25
e 14 28
e 14 30
e 14 33
e 14 46
e 15 23
e 15 24
e 15 28
e 15 29
e 15 33
e 15 46
e 16 23
e 16 26
e 16 27
e 16 31
e 16 32
e 16 46
e 17 23
e 17 25
e 17 27
e 17 34
e 17 46
e 18 23
e 18 24
e 18 26
e 18 34
e 18 46
e 19 23
e 19 25
e 19 28
e 19 34
e 19 46
e 20 23
e 20 24
e 20 28
e 20 34
e 20 46
e 21 23
e 21 26
e 21 27
e 21 34
e 21 46
e 22 23
e 22 29
e 22 30
e 22 31
e 22 32
e 22 33
e 22 46
e 23 35
e 23 36
e 23 37
e 23 38
e 23 39
e 23 40
e 23 41
e 23 42
e 23 43
e 23 44
e 23 45
e 24 47
e 25 47
e 26 47
e 27 47
e 28 47
e 29 47
e 30 47
e 31 47
e 32 47
e 33 47
e 34 47
e 35 47
e 36 47
e 37 47
e 38 47
e 39 47
e 40 47
e 41 47
e 42 47
e 43 47
e 44 47
e 45 47
e 46 47
